************************************************************************
file with basedata            : md336_.bas
initial value random generator: 207519839
************************************************************************
projects                      :  1
jobs (incl. supersource/sink ):  22
horizon                       :  173
RESOURCES
  - renewable                 :  2   R
  - nonrenewable              :  2   N
  - doubly constrained        :  0   D
************************************************************************
PROJECT INFORMATION:
pronr.  #jobs rel.date duedate tardcost  MPM-Time
    1     20      0       36       16       36
************************************************************************
PRECEDENCE RELATIONS:
jobnr.    #modes  #successors   successors
   1        1          3           2   3   4
   2        3          3           5   9  15
   3        3          2           7  11
   4        3          3           5   7  15
   5        3          3           6  10  11
   6        3          3           8  14  16
   7        3          2           8  14
   8        3          2          17  21
   9        3          3          10  11  16
  10        3          3          19  20  21
  11        3          1          12
  12        3          2          13  19
  13        3          1          14
  14        3          1          17
  15        3          2          18  19
  16        3          1          21
  17        3          1          18
  18        3          1          20
  19        3          1          22
  20        3          1          22
  21        3          1          22
  22        1          0        
************************************************************************
REQUESTS/DURATIONS:
jobnr. mode duration  R 1  R 2  N 1  N 2
------------------------------------------------------------------------
  1      1     0       0    0    0    0
  2      1     3       8    6    7    0
         2     8       8    6    0    7
         3     8       6    6    3    0
  3      1     9       4    5    0    6
         2     9       4    7    2    0
         3    10       3    5    0    7
  4      1     2       2    7    0    8
         2     4       1    7    0    7
         3     9       1    6    0    7
  5      1     3       8   10    7    0
         2     4       7   10    0    3
         3     7       5    9    0    1
  6      1     1      10   10    0    8
         2     6       9    8    0    6
         3     9       8    8    0    4
  7      1     3       4    9    7    0
         2     6       2    8    5    0
         3     8       2    6    2    0
  8      1     3       7    7    7    0
         2     5       6    6    0    6
         3    10       4    3    0    5
  9      1     3       8    6    0    6
         2     8       6    4    0    6
         3     8       7    5    7    0
 10      1     2       9    8    5    0
         2     3       4    6    0    4
         3     8       4    1    4    0
 11      1     6       6    9    6    0
         2     8       4    9    0    8
         3     8       2    8    3    0
 12      1     4       9   10    0    7
         2     7       5    5    5    0
         3     9       2    4    0    7
 13      1     2       6    5    8    0
         2     3       6    4    8    0
         3    10       2    2    7    0
 14      1     1       8    7    0    6
         2     5       5    3    9    0
         3    10       2    2    0    5
 15      1     1       7    7    0   10
         2     6       3    5    0    9
         3     9       1    2    0    8
 16      1     2      10    3    0    4
         2     3       9    2    0    4
         3     6       9    2    0    3
 17      1     3       3    7    4    0
         2     6       3    7    3    0
         3     8       2    7    0    6
 18      1     5       8    9    0    8
         2     6       8    6    0    8
         3     8       4    3    0    8
 19      1     3       6    9    0    6
         2     6       5    8    0    5
         3     9       1    7    6    0
 20      1     6       8    4    2    0
         2     6       8    4    0    8
         3     9       5    4    0    4
 21      1     3       9    8    7    0
         2     8       8    7    5    0
         3    10       6    5    5    0
 22      1     0       0    0    0    0
************************************************************************
RESOURCEAVAILABILITIES:
  R 1  R 2  N 1  N 2
   27   30   52   71
************************************************************************
MAXIMAL LAGS:
from  to  type  delay
    1   12   ES      0
    1    2   ES      0
    2   12   ES      0
    1    3   ES      0
    3   12   ES      0
    1    4   ES      0
    4   12   ES      0
    1    5   ES      0
    5   12   ES      0
    1    6   ES      0
    6   12   ES      0
    1    7   ES      0
    7   12   ES      0
    1    8   ES      0
    8   12   ES      0
    1    9   ES      0
    9   12   ES      0
    1   10   ES      0
   10   12   ES      0
    1   11   ES      0
   11   12   ES      0
    1   12   ES      0
    2    5   SS     -6
    2    5   SE     -2
    2    5   ES     -8
    2    5   EE    -11
    2    9   SS     10
    2    9   SE      6
    2    9   ES    -11
    2    9   EE     -4
    2   15   SS     -8
    2   15   SE     -9
    2   15   ES      2
    2   15   EE      2
    3    7   SS      1
    3    7   SE     -7
    3    7   ES     12
    3    7   EE     -2
    3   11   SS     -5
    3   11   SE     -3
    3   11   ES      7
    3   11   EE     -7
    4    5   SS      8
    4    5   SE      7
    4    5   ES     -7
    4    5   EE      6
    4    7   SS      5
    4    7   SE     -5
    4    7   ES    -10
    4    7   EE      1
    4   15   SS      4
    4   15   SE      3
    4   15   ES     -6
    4   15   EE      6
    5    6   SS      3
    5    6   SE      2
    5    6   ES     -4
    5    6   EE    -12
    5   10   SS     11
    5   10   SE      1
    5   10   ES     11
    5   10   EE     -5
    5   11   SS     -5
    5   11   SE     -2
    5   11   ES      1
    5   11   EE      6
    6    8   SS     -5
    6    8   SE      6
    6    8   ES     -8
    6    8   EE      6
    6   14   SS    -12
    6   14   SE      1
    6   14   ES    -11
    6   14   EE    -11
    6   16   SS      3
    6   16   SE     11
    6   16   ES     12
    6   16   EE      4
    7    8   SS    -11
    7    8   SE      1
    7    8   ES      4
    7    8   EE      0
    7   14   SS      3
    7   14   SE     10
    7   14   ES     -9
    7   14   EE      2
    8   17   SS      3
    8   17   SE     -5
    8   17   ES    -10
    8   17   EE      5
    8   21   SS     12
    8   21   SE    -12
    8   21   ES     10
    8   21   EE     11
    9   10   SS      1
    9   10   SE     -6
    9   10   ES     -8
    9   10   EE     -1
    9   11   SS     -3
    9   11   SE     -5
    9   11   ES      8
    9   11   EE    -10
    9   16   SS    -12
    9   16   SE      3
    9   16   ES      9
    9   16   EE     -3
   10   19   SS     -7
   10   19   SE     10
   10   19   ES      2
   10   19   EE      6
   10   20   SS     11
   10   20   SE      6
   10   20   ES    -12
   10   20   EE      2
   10   21   SS      2
   10   21   SE     12
   10   21   ES     -8
   10   21   EE     10
   12   13   SS      0
   12   13   SE     -7
   12   13   ES     -1
   12   13   EE      8
   12   19   SS      2
   12   19   SE     10
   12   19   ES      8
   12   19   EE    -12
   13   14   SS      8
   13   14   SE    -10
   14   13   SE      0
   13   14   ES      0
   13   14   EE     10
   14   17   SS     -2
   14   17   SE      4
   14   17   ES    -11
   14   17   EE     -3
   15   18   SS      1
   15   18   SE     12
   15   18   ES     -4
   15   18   EE     10
   15   19   SS      7
   15   19   SE      5
   15   19   ES      6
   15   19   EE     -6
   16   21   SS      9
   16   21   SE    -10
   16   21   ES      7
   16   21   EE     -2
   17   18   SS     11
   17   18   SE    -11
   17   18   ES      4
   17   18   EE      9
   18   20   SS     -1
   18   20   SE    -11
   18   20   ES     -9
   18   20   EE      0
   19   22   SS     -1
   19   22   SE      2
   19   22   ES      7
   19   22   EE    -11
   20   22   SS     -1
   20   22   SE     -1
   20   22   ES     -7
   20   22   EE      8
   21   22   SS      5
   21   22   SE     10
   21   22   ES    -10
   21   22   EE      5
************************************************************************
